p tdp 16 50
1 2
1 9
1 11
1 13
1 14
1 15
2 3
2 4
2 6
2 7
2 8
2 9
2 10
2 13
2 15
3 9
3 12
3 14
4 5
4 6
4 15
5 11
5 13
5 15
6 8
6 10
6 12
6 15
6 16
7 10
7 11
7 12
7 13
7 14
7 15
8 9
8 11
8 14
9 12
9 15
9 16
10 13
10 16
11 12
11 16
12 14
12 15
12 16
13 14
14 16
